306 193 34 
307 186 28 
306 177 28 
306 177 28 
315 177 28 
308 177 28 
304 177 28 
306 177 28 
308 177 27 
309 177 28 
306 177 28 
310 179 28 
313 177 28 
306 177 28 
303 177 27 
305 177 27 
306 177 27 
309 177 27 
305 177 27 
305 182 27 
306 177 27 
303 177 27 
305 177 27 
305 176 27 
304 177 27 
307 177 27 
307 177 27 
316 177 27 
308 177 27 
306 177 27 
306 195 32 
306 185 31 
305 177 27 
309 177 27 
306 177 27 
307 177 27 
305 176 27 
307 176 27 
314 177 27 
308 176 27 
306 177 27 
307 177 27 
305 177 27 
306 177 27 
306 177 27 
307 177 31 
307 177 27 
306 177 27 
305 177 27 
305 181 27 
304 176 27 
305 177 27 
305 176 27 
310 176 27 
307 176 27 
308 177 27 
306 177 27 
306 177 27 
306 177 27 
308 176 27 
306 192 34 
313 186 34 
302 178 27 
303 177 27 
303 177 27 
303 176 27 
304 176 27 
304 176 27 
304 176 27 
312 177 27 
302 177 27 
304 177 27 
304 176 27 
306 176 27 
305 176 27 
306 176 27 
304 184 27 
302 177 27 
303 176 27 
302 177 27 
305 176 27 
304 177 27 
304 177 27 
305 181 27 
307 177 27 
306 176 27 
304 176 27 
305 177 27 
304 176 27 
303 176 27 
306 190 34 
302 185 28 
304 176 26 
304 176 27 
303 176 26 
304 176 26 
303 176 27 
311 176 27 
304 176 26 
302 176 26 
305 176 27 
301 176 26 
302 176 26 
301 176 27 
303 176 30 
302 176 27 
301 176 27 
302 176 27 
303 177 27 
304 176 26 
302 176 26 
300 176 27 
303 180 26 
302 176 27 
301 176 27 
303 176 26 
304 176 27 
302 176 27 
302 176 26 
303 176 27 
338 204 45 
325 196 38 
312 186 26 
307 185 26 
308 187 26 
308 186 26 
309 185 26 
311 192 26 
309 186 26 
310 187 26 
309 186 26 
308 185 26 
310 183 26 
312 185 26 
310 187 26 
313 184 26 
311 193 26 
309 185 26 
310 185 26 
308 184 26 
310 185 26 
310 186 26 
312 190 26 
308 186 26 
310 186 26 
310 185 26 
309 187 26 
311 184 26 
310 187 26 
312 186 26 
309 187 26 
310 186 26 
310 186 26 
313 187 26 
309 187 26 
309 185 26 
313 183 26 
308 187 26 
311 183 26 
309 186 26 
313 186 26 
310 188 26 
309 184 26 
313 187 26 
311 187 26 
311 185 26 
309 186 26 
313 186 26 
309 186 26 
311 184 26 
309 184 31 
311 185 26 
310 185 26 
309 185 26 
307 186 26 
312 183 26 
310 187 26 
309 188 26 
319 187 26 
313 184 26 
307 186 26 
312 185 26 
310 189 26 
310 185 26 
314 185 26 
309 185 26 
310 186 26 
309 186 26 
311 186 26 
310 187 26 
310 185 26 
313 187 26 
308 186 26 
308 186 26 
313 186 26 
311 184 26 
310 184 26 
308 184 26 
310 188 26 
319 188 26 
309 189 26 
308 185 26 
310 187 26 
312 187 26 
308 186 26 
311 188 26 
309 192 26 
313 186 26 
310 184 26 
310 186 26 
308 186 26 
310 184 26 
311 190 26 
309 187 26 
308 184 26 
311 186 26 
310 185 26 
310 184 26 
310 183 26 
308 186 26 
308 185 26 
309 186 26 
311 188 26 
309 186 26 
310 187 26 
310 185 26 
315 186 26 
311 188 26 
309 184 26 
312 187 26 
310 186 26 
307 184 26 
311 190 26 
310 191 26 
309 186 26 
307 184 26 
311 187 26 
309 184 26 
310 187 26 
310 185 26 
311 186 26 
311 185 26 
311 185 26 
312 184 26 
310 185 26 
310 187 26 
311 185 26 
320 186 26 
309 185 26 
310 186 26 
310 186 26 
308 185 26 
307 186 26 
310 193 26 
308 188 26 
310 185 26 
309 185 26 
312 187 26 
307 184 26 
308 186 26 
309 185 26 
310 186 26 
315 187 26 
308 185 26 
308 195 26 
310 186 26 
312 183 26 
309 185 26 
309 188 26 
311 188 26 
308 186 26 
309 185 26 
308 185 26 
311 183 26 
308 186 26 
311 195 26 
311 184 26 
312 185 26 
308 185 26 
313 185 26 
311 184 26 
312 186 26 
309 185 26 
317 185 26 
310 188 26 
313 186 26 
309 187 26 
310 186 26 
308 186 26 
312 186 26 
309 192 26 
309 187 26 
308 188 26 
309 185 26 
309 186 26 
310 186 26 
307 191 26 
313 186 26 
313 186 26 
310 185 26 
312 185 26 
308 186 26 
312 186 26 
310 189 26 
318 184 26 
310 190 26 
310 184 26 
311 187 26 
309 187 26 
311 192 26 
311 188 26 
315 186 26 
309 183 26 
311 182 26 
312 184 26 
312 194 26 
308 186 26 
312 183 26 
310 189 26 
311 187 26 
308 185 26 
309 184 26 
310 183 26 
313 186 26 
311 185 30 
311 185 26 
310 185 26 
310 194 26 
309 186 26 
310 186 26 
312 185 26 
319 186 26 
309 187 26 
310 187 26 
308 193 26 
309 186 26 
311 189 26 
310 187 26 
313 185 26 
307 186 26 
311 185 26 
307 186 26 
308 186 26 
309 185 26 
310 187 26 
310 190 26 
312 193 26 
309 185 26 
312 185 26 
308 186 26 
310 190 26 
311 185 26 
310 183 26 
315 187 26 
309 186 26 
309 186 26 
310 185 26 
311 186 26 
308 187 26 
309 186 26 
312 187 26 
312 187 26 
311 186 26 
307 187 26 
310 185 26 
311 187 26 
310 192 26 
311 195 26 
311 188 26 
312 185 26 
311 185 26 
310 183 26 
309 183 26 
310 185 26 
318 185 26 
309 185 26 
308 190 26 
309 187 26 
311 192 26 
310 185 26 
310 186 26 
309 191 26 
311 186 26 
311 187 26 
310 184 26 
310 186 26 
311 191 26 
311 185 26 
309 186 26 
316 185 26 
308 187 26 
311 185 26 
313 184 26 
310 192 26 
311 187 26 
319 193 26 
309 186 26 
307 191 26 
308 185 26 
312 185 26 
311 186 26 
311 186 26 
310 188 26 
309 183 26 
310 194 26 
311 187 26 
311 184 26 
311 184 26 
311 191 26 
311 185 26 
315 187 26 
310 185 26 
310 186 26 
311 186 26 
307 184 26 
309 186 26 
310 187 26 
314 185 26 
310 192 26 
310 184 26 
311 187 26 
309 184 26 
310 184 26 
322 184 26 
310 187 26 
311 187 26 
310 187 26 
310 186 26 
311 184 26 
311 185 26 
310 190 26 
309 187 26 
311 185 26 
308 186 26 
307 189 26 
311 185 26 
310 187 26 
311 184 26 
318 186 26 
309 188 26 
309 183 26 
312 184 26 
309 195 26 
310 187 26 
309 185 26 
310 190 26 
311 186 26 
311 185 26 
309 187 26 
310 186 26 
309 185 26 
312 187 26 
309 185 26 
312 186 26 
308 187 26 
311 186 26 
310 184 26 
313 184 26 
310 185 26 
325 187 26 
308 186 26 
309 188 26 
311 187 26 
309 187 26 
312 185 26 
310 193 26 
308 189 26 
310 187 26 
309 183 26 
312 190 26 
306 184 26 
311 186 26 
312 184 26 
312 189 26 
315 186 26 
308 187 26 
311 185 26 
310 185 26 
311 184 26 
311 184 26 
316 187 26 
308 186 26 
310 185 26 
311 186 26 
309 187 26 
311 184 26 
310 186 26 
313 191 26 
309 183 26 
309 184 26 
311 185 26 
306 186 26 
309 186 26 
308 184 26 
312 187 26 
317 182 26 
312 184 26 
308 188 26 
309 190 26 
309 187 26 
311 186 26 
310 185 26 
313 184 26 
312 185 26 
312 184 26 
312 186 26 
312 185 26 
309 186 26 
310 188 26 
311 190 26 
310 184 26 
311 187 26 
311 185 26 
311 185 26 
309 187 26 
310 184 26 
316 186 26 
309 186 26 
309 185 26 
308 186 26 
312 186 26 
306 187 26 
316 186 26 
306 188 26 
311 186 26 
310 185 26 
309 187 26 
306 186 26 
312 185 26 
312 187 26 
309 183 26 
308 186 26 
311 186 26 
310 185 26 
311 184 26 
310 184 26 
307 191 26 
312 185 26 
309 186 26 
310 186 26 
310 185 26 
309 185 26 
309 184 26 
315 184 26 
311 182 26 
309 187 26 
310 186 26 
308 186 26 
310 186 26 
310 187 26 
310 188 26 
312 187 27 
312 188 26 
311 186 26 
313 186 26 
309 186 26 
309 184 26 
309 183 26 
314 183 26 
311 186 26 
309 194 26 
309 187 26 
310 185 26 
312 185 26 
311 187 26 
313 186 26 
309 187 26 
309 191 26 
310 184 26 
311 192 26 
309 185 26 
311 194 26 
310 186 26 
311 184 26 
311 187 26 
308 185 26 
311 185 26 
309 184 26 
309 187 26 
309 186 26 
308 187 26 
311 185 26 
310 193 26 
308 186 26 
310 187 26 
310 185 26 
315 183 26 
309 187 26 
309 186 26 
310 184 26 
310 187 26 
311 186 26 
309 189 26 
309 190 26 
310 187 26 
309 187 26 
309 187 26 
310 187 26 
312 185 26 
309 185 26 
308 185 26 
307 184 26 
310 187 26 
312 186 26 
307 185 26 
310 185 26 
313 187 26 
314 187 26 
311 186 26 
307 186 26 
310 185 26 
313 187 26 
307 187 26 
311 185 26 
311 188 26 
310 190 26 
311 186 26 
310 186 26 
309 182 26 
311 184 26 
311 184 33 
311 195 26 
311 184 26 
309 186 26 
310 186 26 
310 190 26 
310 185 26 
312 184 26 
320 184 26 
308 185 26 
308 185 26 
312 187 26 
309 184 26 
312 185 26 
315 186 26 
309 183 26 
309 188 26 
310 184 26 
311 187 26 
311 183 26 
309 184 26 
307 185 30 
310 185 26 
309 186 26 
309 185 26 
310 184 26 
310 187 26 
314 188 26 
310 184 26 
319 188 26 
310 182 26 
312 187 26 
312 185 26 
309 185 26 
311 184 26 
308 185 26 
308 197 26 
309 193 26 
311 186 26 
312 186 26 
310 186 26 
310 187 26 
310 189 26 
309 186 26 
311 186 26 
313 186 26 
306 187 26 
310 186 26 
311 186 26 
311 182 26 
319 185 26 
307 182 26 
309 188 26 
307 187 26 
311 187 26 
309 185 26 
309 191 26 
311 192 26 
308 187 26 
311 185 26 
309 185 26 
310 186 26 
309 186 26 
309 185 26 
310 190 26 
314 185 26 
313 185 26 
310 186 26 
310 186 26 
310 187 26 
309 183 26 
318 187 26 
310 186 26 
310 185 26 
307 187 26 
309 190 26 
311 187 26 
308 184 26 
309 190 26 
310 186 26 
310 186 26 
310 187 26 
310 187 26 
310 187 26 
309 189 26 
311 187 26 
314 185 26 
309 185 26 
309 187 26 
310 184 26 
312 186 26 
311 183 26 
311 187 26 
308 189 26 
309 185 26 
310 185 26 
311 184 26 
310 184 26 
310 185 26 
309 191 26 
310 187 26 
310 183 26 
311 185 26 
312 184 26 
309 184 26 
312 186 26 
312 183 26 
308 187 26 
311 184 26 
312 186 26 
307 184 26 
310 188 26 
311 185 26 
311 183 26 
314 185 26 
310 187 26 
309 185 26 
309 185 26 
312 184 26 
306 183 26 
308 184 26 
308 199 26 
309 186 26 
312 185 26 
310 186 26 
308 185 26 
310 184 26 
309 192 26 
311 187 26 
315 185 26 
310 185 26 
309 186 26 
312 194 26 
314 186 26 
312 186 26 
317 188 26 
312 185 26 
312 181 26 
311 186 26 
311 185 26 
310 183 26 
310 180 26 
309 188 26 
311 185 26 
310 185 26 
311 182 26 
308 185 26 
308 185 26 
309 184 26 
310 182 26 
314 185 26 
308 187 26 
309 183 26 
313 183 26 
308 184 26 
311 183 26 
309 186 26 
310 195 26 
308 185 26 
308 184 26 
309 186 26 
309 186 26 
311 185 26 
308 189 26 
309 186 26 
310 187 26 
312 184 26 
308 186 26 
308 194 26 
311 184 26 
311 185 26 
320 186 26 
307 185 26 
310 187 26 
310 184 26 
310 185 26 
311 185 26 
311 187 26 
310 190 26 
306 186 26 
309 187 26 
310 187 26 
309 184 26 
309 183 26 
312 185 26 
309 185 26 
314 187 26 
310 188 26 
310 185 26 
309 181 26 
309 187 26 
311 186 26 
323 186 26 
307 186 26 
309 186 26 
308 185 26 
311 188 26 
310 187 26 
310 185 26 
309 189 26 
311 185 26 
308 186 26 
311 184 26 
310 187 26 
308 183 26 
311 188 26 
311 185 26 
309 184 26 
309 186 26 
310 184 26 
313 194 26 
312 182 26 
311 187 26 
318 186 26 
309 186 26 
309 186 26 
309 186 26 
308 185 26 
310 186 26 
309 186 26 
310 188 26 
309 185 26 
311 187 26 
309 188 26 
310 185 26 
311 185 26 
309 189 26 
310 187 26 
310 186 26 
310 193 26 
310 188 26 
310 184 26 
311 185 26 
311 192 26 
319 188 26 
310 184 26 
311 188 26 
308 191 26 
309 186 26 
309 184 26 
308 186 26 
309 191 26 
313 185 26 
310 185 26 
310 184 26 
307 186 26 
312 185 26 
310 185 26 
309 185 26 
314 189 26 
311 183 26 
312 187 26 
309 187 26 
310 186 26 
311 185 26 
315 185 26 
312 185 26 
309 187 26 
308 186 26 
309 186 26 
309 185 26 
309 184 26 
308 190 26 
309 185 26 
310 185 26 
309 186 26 
308 182 26 
311 191 26 
310 186 26 
308 185 26 
314 186 26 
310 187 26 
308 185 26 
310 185 26 
311 187 26 
312 187 26 
311 184 26 
310 189 26 
311 184 26 
309 184 26 
309 183 26 
310 186 26 
309 185 26 
310 190 26 
312 185 26 
312 187 26 
310 192 26 
310 186 26 
310 186 26 
309 184 26 
309 187 26 
317 183 26 
309 184 26 
311 185 26 
310 189 26 
311 186 26 
311 185 26 
312 184 26 
309 192 26 
309 185 26 
308 186 26 
309 186 26 
312 186 26 
308 191 26 
312 189 26 
311 185 26 
311 187 26 
308 186 26 
311 186 26 
309 187 26 
307 189 26 
309 186 26 
312 184 26 
310 185 26 
310 185 26 
310 187 26 
312 186 26 
312 187 26 
315 184 26 
311 185 26 
312 186 26 
310 186 26 
309 186 26 
308 185 26 
311 184 26 
309 191 26 
309 193 26 
312 187 26 
309 186 26 
310 186 26 
310 185 26 
308 186 26 
307 183 26 
315 187 26 
310 186 26 
309 188 26 
310 192 26 
312 192 26 
309 186 26 
307 183 26 
310 185 26 
311 186 26 
311 187 26 
308 186 26 
312 184 26 
311 185 26 
310 193 26 
310 184 26 
310 191 26 
312 184 26 
307 185 26 
309 184 26 
310 186 26 
311 183 26 
314 185 26 
310 182 26 
309 187 26 
309 183 26 
309 188 26 
308 187 26 
310 190 26 
313 190 26 
310 183 26 
308 188 26 
312 185 26 
308 192 26 
309 184 26 
311 186 26 
310 186 26 
316 186 26 
310 186 26 
308 186 26 
312 186 26 
312 187 26 
310 186 26 
318 187 26 
311 186 26 
309 185 26 
310 191 26 
309 186 26 
310 188 26 
311 186 26 
313 184 26 
311 185 26 
311 186 26 
312 185 26 
310 184 26 
307 194 26 
310 187 26 
309 186 26 
310 185 26 
312 184 26 
311 188 26 
312 186 26 
310 187 26 
310 187 26 
309 185 26 
314 186 26 
311 185 26 
308 186 26 
311 184 26 
309 184 26 
311 185 26 
351 192 26 
308 186 26 
309 183 26 
310 188 26 
309 186 26 
309 184 26 
308 185 26 
310 195 26 
312 185 26 
309 186 26 
310 182 26 
307 186 26 
309 186 26 
310 186 26 
309 185 26 
313 185 26 
311 187 26 
309 185 26 
312 183 26 
309 185 26 
310 186 26 
310 185 26 
308 192 26 
309 192 26 
310 186 26 
312 188 26 
308 188 26 
307 187 26 
308 192 26 
309 185 26 
310 187 26 
311 189 26 
309 185 26 
309 186 26 
310 185 26 
309 184 26 
316 185 26 
311 184 26 
310 185 26 
309 183 26 
309 183 26 
311 184 26 
309 187 26 
309 189 26 
310 186 26 
307 194 26 
309 183 26 
311 186 26 
310 186 26 
310 186 26 
309 185 26 
316 185 26 
309 188 26 
310 186 26 
308 187 26 
310 185 26 
310 185 26 
315 184 26 
311 187 26 
310 186 26 
308 188 26 
311 187 26 
308 191 26 
312 184 26 
308 189 26 
311 187 26 
310 187 26 
308 185 26 
308 187 26 
310 184 26 
312 184 26 
308 186 26 
313 185 26 
311 185 26 
309 185 26 
309 186 26 
312 187 26 
311 187 26 
311 183 26 
315 181 26 
310 186 26 
307 185 26 
311 184 26 
308 186 26 
309 186 26 
312 185 26 
310 186 30 
309 192 26 
310 186 26 
309 185 26 
311 187 26 
311 185 26 
310 183 26 
316 186 26 
310 187 26 
313 185 26 
310 185 26 
